%%%mzn-stat: initTime=0.016468956
%%%mzn-stat: objective=230
%%%mzn-stat: nodes=771987
%%%mzn-stat: restarts=481
%%%mzn-stat: peakDepth=806
%%%mzn-stat: solveTime=239.01093886
%%%mzn-stat: variables=1363
%%%mzn-stat: propagators=1039
%%%mzn-stat: failures=486629
%%%mzn-stat: propagations=13681012
%%%mzn-stat: nogoods=486629
%%%mzn-stat: AverageConflictSize=25.668318164351078
%%%mzn-stat: NumUnitNogoodsLearned=229
%%%mzn-stat: AverageLearnedNogoodLength=35.78225917485394
%%%mzn-stat: AverageBacktrackAmount=0
%%%mzn-stat: AverageLbd=20.33509716847948
%%%mzn-stat-end
maxleg = 230;
succ = array1d(1..100,[20, 16, 23, 97, 44, 70, 72, 38, 92, 13, 25, 21, 71, 35, 40, 27, 62, 39, 45, 47, 78, 64, 12, 3, 87, 65, 5, 96, 63, 2, 32, 95, 69, 89, 94, 43, 17, 6, 68, 42, 81, 24, 99, 74, 41, 18, 14, 15, 58, 34, 67, 86, 61, 48, 79, 66, 28, 88, 10, 93, 26, 91, 49, 31, 100, 36, 75, 57, 84, 77, 55, 73, 37, 1, 90, 50, 54, 22, 7, 59, 46, 8, 19, 82, 9, 80, 52, 76, 4, 29, 98, 60, 51, 83, 11, 85, 56, 30, 53, 33]);
% time elapsed: 240.44 s
----------
==========
% time elapsed: 240.44 s
%%%mzn-stat: initTime=0.016468956
%%%mzn-stat: objective=230
%%%mzn-stat: nodes=771987
%%%mzn-stat: restarts=481
%%%mzn-stat: peakDepth=806
%%%mzn-stat: solveTime=239.010943983
%%%mzn-stat: variables=1363
%%%mzn-stat: propagators=1039
%%%mzn-stat: failures=486629
%%%mzn-stat: propagations=13681012
%%%mzn-stat: nogoods=486629
%%%mzn-stat: AverageConflictSize=25.668318164351078
%%%mzn-stat: NumUnitNogoodsLearned=229
%%%mzn-stat: AverageLearnedNogoodLength=35.78225917485394
%%%mzn-stat: AverageBacktrackAmount=0
%%%mzn-stat: AverageLbd=20.33509716847948
%%%mzn-stat-end
